2
1000 1000 
50
165 125 30
315 355 72
117 321 4
137 188 88
143 224 54
301 195 64
278 269 90
139 110 26
353 388 94
285 367 28
303 314 72
272 297 49
160 182 54
334 236 19
359 225 28
203 315 61
232 175 84
313 169 23
113 166 67
298 131 53
135 132 54
191 334 16
232 105 9
125 111 54
136 220 77
333 396 80
281 109 68
249 123 39
301 105 25
306 123 74
229 343 14
137 132 53
198 156 35
377 281 100
141 176 39
257 205 82
392 237 62
312 237 80
184 273 94
274 210 4
350 316 100
278 357 93
325 201 95
256 112 8
240 160 7
242 209 90
330 226 84
369 279 10
327 234 13
271 358 63
